NAME: cum100.tsp
TYPE: TSP
COMMENT: User-generated TSP file
DIMENSION: 500
EDGE_WEIGHT_TYPE: EUC_2D
NODE_COORD_SECTION
1 52.0 323.0
2 468.0 322.0
3 39.0 276.0
4 346.0 137.0
5 211.0 178.0
6 282.0 430.0
7 495.0 305.0
8 361.0 288.0
9 58.0 65.0
10 424.0 232.0
11 477.0 171.0
12 116.0 12.0
13 465.0 365.0
14 336.0 327.0
15 105.0 4.0
16 379.0 487.0
17 144.0 427.0
18 28.0 180.0
19 301.0 300.0
20 129.0 53.0
21 482.0 458.0
22 36.0 387.0
23 159.0 285.0
24 264.0 475.0
25 19.0 256.0
26 199.0 440.0
27 354.0 406.0
28 233.0 283.0
29 283.0 276.0
30 231.0 457.0
31 198.0 295.0
32 295.0 417.0
33 145.0 113.0
34 459.0 149.0
35 174.0 124.0
36 83.0 111.0
37 433.0 247.0
38 232.0 310.0
39 300.0 27.0
40 172.0 440.0
41 257.0 50.0
42 461.0 285.0
43 146.0 283.0
44 62.0 266.0
45 317.0 30.0
46 325.0 245.0
47 228.0 179.0
48 236.0 330.0
49 178.0 329.0
50 179.0 264.0
51 486.0 83.0
52 89.0 228.0
53 342.0 282.0
54 323.0 118.0
55 381.0 126.0
56 254.0 157.0
57 74.0 199.0
58 218.0 94.0
59 455.0 351.0
60 95.0 73.0
61 495.0 299.0
62 456.0 211.0
63 121.0 84.0
64 447.0 248.0
65 111.0 497.0
66 191.0 128.0
67 220.0 343.0
68 219.0 99.0
69 407.0 69.0
70 178.0 223.0
71 236.0 395.0
72 492.0 230.0
73 247.0 443.0
74 58.0 303.0
75 439.0 305.0
76 259.0 324.0
77 305.0 21.0
78 11.0 207.0
79 335.0 102.0
80 87.0 388.0
81 399.0 350.0
82 418.0 485.0
83 180.0 147.0
84 260.0 270.0
85 125.0 54.0
86 144.0 97.0
87 133.0 193.0
88 220.0 371.0
89 76.0 78.0
90 206.0 342.0
91 410.0 115.0
92 390.0 402.0
93 173.0 485.0
94 343.0 208.0
95 134.0 281.0
96 285.0 33.0
97 33.0 486.0
98 248.0 209.0
99 413.0 197.0
100 157.0 359.0
101 434.0 455.0
102 96.0 379.0
103 407.0 416.0
104 129.0 80.0
105 423.0 323.0
106 490.0 149.0
107 341.0 308.0
108 62.0 274.0
109 380.0 206.0
110 350.0 241.0
111 115.0 347.0
112 69.0 310.0
113 462.0 418.0
114 144.0 336.0
115 277.0 294.0
116 252.0 115.0
117 389.0 322.0
118 144.0 204.0
119 493.0 496.0
120 220.0 387.0
121 112.0 46.0
122 348.0 195.0
123 370.0 10.0
124 108.0 53.0
125 228.0 23.0
126 132.0 500.0
127 384.0 39.0
128 408.0 159.0
129 151.0 157.0
130 192.0 322.0
131 38.0 2.0
132 107.0 126.0
133 97.0 12.0
134 353.0 139.0
135 460.0 321.0
136 245.0 33.0
137 161.0 48.0
138 42.0 488.0
139 462.0 481.0
140 124.0 339.0
141 315.0 52.0
142 307.0 123.0
143 348.0 286.0
144 264.0 187.0
145 20.0 18.0
146 173.0 276.0
147 245.0 11.0
148 329.0 362.0
149 470.0 418.0
150 166.0 31.0
151 43.0 108.0
152 295.0 26.0
153 99.0 465.0
154 113.0 168.0
155 15.0 65.0
156 240.0 118.0
157 173.0 275.0
158 455.0 383.0
159 6.0 286.0
160 431.0 497.0
161 9.0 52.0
162 380.0 293.0
163 176.0 184.0
164 153.0 356.0
165 467.0 255.0
166 116.0 353.0
167 483.0 134.0
168 245.0 124.0
169 195.0 352.0
170 68.0 62.0
171 414.0 125.0
172 364.0 397.0
173 495.0 355.0
174 54.0 132.0
175 289.0 141.0
176 400.0 304.0
177 441.0 411.0
178 137.0 419.0
179 267.0 365.0
180 265.0 140.0
181 29.0 326.0
182 56.0 177.0
183 208.0 157.0
184 224.0 54.0
185 56.0 478.0
186 266.0 141.0
187 271.0 94.0
188 358.0 292.0
189 140.0 228.0
190 354.0 484.0
191 95.0 95.0
192 341.0 263.0
193 359.0 66.0
194 445.0 389.0
195 104.0 426.0
196 249.0 184.0
197 411.0 289.0
198 352.0 268.0
199 318.0 156.0
200 383.0 94.0
201 105.0 425.0
202 218.0 398.0
203 135.0 155.0
204 461.0 375.0
205 443.0 192.0
206 253.0 202.0
207 490.0 184.0
208 380.0 232.0
209 174.0 377.0
210 349.0 339.0
211 474.0 427.0
212 129.0 117.0
213 149.0 307.0
214 92.0 105.0
215 422.0 303.0
216 3.0 456.0
217 59.0 288.0
218 162.0 108.0
219 380.0 211.0
220 86.0 315.0
221 137.0 205.0
222 436.0 338.0
223 226.0 425.0
224 16.0 148.0
225 31.0 98.0
226 427.0 486.0
227 363.0 196.0
228 150.0 462.0
229 235.0 209.0
230 260.0 459.0
231 232.0 299.0
232 232.0 46.0
233 145.0 482.0
234 471.0 195.0
235 220.0 50.0
236 193.0 330.0
237 196.0 197.0
238 286.0 123.0
239 476.0 243.0
240 61.0 365.0
241 348.0 20.0
242 216.0 59.0
243 313.0 171.0
244 27.0 441.0
245 99.0 205.0
246 168.0 305.0
247 140.0 467.0
248 278.0 154.0
249 8.0 208.0
250 199.0 193.0
251 370.0 243.0
252 344.0 245.0
253 382.0 449.0
254 185.0 417.0
255 114.0 57.0
256 169.0 11.0
257 97.0 1.0
258 95.0 116.0
259 78.0 239.0
260 408.0 173.0
261 394.0 330.0
262 314.0 42.0
263 25.0 391.0
264 463.0 173.0
265 209.0 125.0
266 132.0 124.0
267 303.0 131.0
268 110.0 49.0
269 442.0 190.0
270 439.0 257.0
271 63.0 306.0
272 187.0 229.0
273 150.0 397.0
274 447.0 20.0
275 200.0 460.0
276 338.0 261.0
277 415.0 244.0
278 102.0 253.0
279 411.0 129.0
280 39.0 137.0
281 48.0 364.0
282 151.0 373.0
283 418.0 92.0
284 268.0 68.0
285 66.0 463.0
286 383.0 34.0
287 214.0 125.0
288 48.0 387.0
289 196.0 374.0
290 375.0 385.0
291 285.0 202.0
292 106.0 330.0
293 479.0 477.0
294 53.0 194.0
295 217.0 38.0
296 56.0 252.0
297 157.0 35.0
298 297.0 371.0
299 48.0 18.0
300 279.0 212.0
301 57.0 278.0
302 258.0 10.0
303 444.0 371.0
304 226.0 41.0
305 231.0 141.0
306 152.0 397.0
307 271.0 360.0
308 36.0 444.0
309 468.0 207.0
310 181.0 317.0
311 140.0 107.0
312 52.0 472.0
313 51.0 166.0
314 217.0 292.0
315 422.0 69.0
316 57.0 242.0
317 64.0 45.0
318 442.0 255.0
319 375.0 106.0
320 217.0 255.0
321 267.0 141.0
322 25.0 141.0
323 206.0 103.0
324 371.0 104.0
325 55.0 165.0
326 73.0 395.0
327 86.0 155.0
328 97.0 53.0
329 261.0 342.0
330 188.0 475.0
331 95.0 329.0
332 93.0 167.0
333 274.0 206.0
334 107.0 274.0
335 384.0 485.0
336 321.0 385.0
337 405.0 119.0
338 295.0 159.0
339 443.0 401.0
340 434.0 161.0
341 107.0 54.0
342 498.0 401.0
343 413.0 322.0
344 438.0 250.0
345 68.0 137.0
346 43.0 209.0
347 149.0 385.0
348 368.0 247.0
349 89.0 380.0
350 107.0 6.0
351 404.0 218.0
352 186.0 61.0
353 374.0 439.0
354 360.0 436.0
355 403.0 224.0
356 266.0 436.0
357 402.0 484.0
358 47.0 327.0
359 49.0 262.0
360 79.0 370.0
361 131.0 480.0
362 184.0 155.0
363 93.0 411.0
364 414.0 82.0
365 188.0 284.0
366 465.0 23.0
367 318.0 107.0
368 91.0 266.0
369 273.0 332.0
370 32.0 28.0
371 334.0 415.0
372 242.0 86.0
373 390.0 363.0
374 236.0 252.0
375 27.0 114.0
376 233.0 319.0
377 245.0 319.0
378 219.0 56.0
379 224.0 52.0
380 297.0 285.0
381 94.0 105.0
382 439.0 285.0
383 428.0 207.0
384 461.0 196.0
385 216.0 234.0
386 194.0 99.0
387 334.0 388.0
388 238.0 378.0
389 129.0 15.0
390 107.0 450.0
391 320.0 476.0
392 20.0 343.0
393 262.0 274.0
394 443.0 178.0
395 101.0 170.0
396 143.0 417.0
397 451.0 460.0
398 161.0 219.0
399 292.0 438.0
400 1.0 483.0
401 274.0 414.0
402 151.0 425.0
403 253.0 212.0
404 207.0 19.0
405 73.0 133.0
406 6.0 339.0
407 381.0 425.0
408 319.0 427.0
409 420.0 158.0
410 160.0 487.0
411 182.0 233.0
412 274.0 289.0
413 66.0 337.0
414 80.0 270.0
415 181.0 498.0
416 189.0 401.0
417 341.0 211.0
418 277.0 238.0
419 445.0 47.0
420 359.0 86.0
421 442.0 398.0
422 188.0 386.0
423 290.0 133.0
424 119.0 218.0
425 185.0 333.0
426 293.0 83.0
427 256.0 392.0
428 12.0 468.0
429 367.0 194.0
430 369.0 3.0
431 168.0 450.0
432 159.0 428.0
433 451.0 192.0
434 33.0 337.0
435 175.0 169.0
436 223.0 162.0
437 324.0 485.0
438 179.0 292.0
439 286.0 67.0
440 67.0 461.0
441 50.0 37.0
442 482.0 410.0
443 167.0 156.0
444 146.0 324.0
445 248.0 215.0
446 58.0 81.0
447 12.0 222.0
448 447.0 239.0
449 394.0 394.0
450 18.0 23.0
451 224.0 493.0
452 114.0 19.0
453 89.0 266.0
454 232.0 128.0
455 338.0 202.0
456 203.0 305.0
457 259.0 299.0
458 455.0 409.0
459 466.0 150.0
460 443.0 231.0
461 302.0 131.0
462 382.0 343.0
463 455.0 30.0
464 349.0 65.0
465 477.0 465.0
466 230.0 320.0
467 117.0 215.0
468 332.0 57.0
469 141.0 373.0
470 464.0 258.0
471 223.0 269.0
472 230.0 268.0
473 34.0 246.0
474 402.0 459.0
475 192.0 6.0
476 99.0 184.0
477 235.0 77.0
478 353.0 32.0
479 92.0 177.0
480 284.0 167.0
481 199.0 360.0
482 213.0 261.0
483 127.0 70.0
484 18.0 419.0
485 169.0 343.0
486 204.0 45.0
487 291.0 436.0
488 461.0 222.0
489 361.0 488.0
490 324.0 481.0
491 348.0 388.0
492 433.0 373.0
493 8.0 143.0
494 8.0 141.0
495 213.0 482.0
496 491.0 478.0
497 263.0 380.0
498 26.0 252.0
499 214.0 211.0
500 11.0 196.0
EOF

